c File: data_files/evolved_graphs/g0460.col
c
c Auto generated graph
c
p edge 100 1024
e 1 4
e 1 5
e 1 25
e 1 27
e 1 28
e 1 30
e 1 31
e 1 32
e 1 33
e 1 34
e 1 35
e 1 36
e 1 37
e 1 38
e 1 39
e 1 40
e 1 41
e 1 42
e 1 43
e 1 44
e 1 45
e 1 46
e 1 47
e 1 48
e 1 52
e 1 54
e 1 66
e 1 69
e 1 72
e 1 77
e 1 81
e 1 86
e 1 89
e 1 92
e 1 99
e 1 100
e 2 4
e 2 25
e 2 26
e 2 27
e 2 28
e 2 29
e 2 30
e 2 31
e 2 32
e 2 33
e 2 34
e 2 35
e 2 36
e 2 37
e 2 38
e 2 39
e 2 40
e 2 41
e 2 42
e 2 43
e 2 44
e 2 45
e 2 46
e 2 47
e 2 48
e 2 52
e 2 54
e 2 55
e 2 57
e 2 58
e 2 59
e 2 64
e 2 67
e 2 71
e 2 76
e 2 82
e 2 87
e 2 88
e 2 98
e 3 4
e 3 25
e 3 26
e 3 27
e 3 28
e 3 29
e 3 30
e 3 31
e 3 32
e 3 33
e 3 34
e 3 35
e 3 36
e 3 37
e 3 38
e 3 39
e 3 40
e 3 41
e 3 42
e 3 43
e 3 44
e 3 45
e 3 46
e 3 47
e 3 48
e 3 49
e 3 54
e 3 59
e 3 63
e 3 86
e 3 87
e 3 90
e 3 91
e 3 96
e 3 97
e 4 7
e 4 25
e 4 26
e 4 27
e 4 28
e 4 29
e 4 30
e 4 31
e 4 32
e 4 33
e 4 34
e 4 35
e 4 36
e 4 37
e 4 38
e 4 39
e 4 40
e 4 41
e 4 42
e 4 43
e 4 44
e 4 45
e 4 46
e 4 47
e 4 48
e 4 50
e 4 52
e 4 58
e 4 76
e 4 77
e 4 82
e 4 85
e 4 91
e 4 95
e 4 96
e 5 25
e 5 26
e 5 27
e 5 28
e 5 29
e 5 30
e 5 31
e 5 32
e 5 33
e 5 34
e 5 35
e 5 36
e 5 37
e 5 38
e 5 39
e 5 40
e 5 41
e 5 42
e 5 43
e 5 44
e 5 45
e 5 46
e 5 47
e 5 48
e 5 60
e 5 64
e 5 65
e 5 72
e 5 75
e 5 76
e 5 80
e 5 81
e 5 88
e 5 89
e 5 95
e 5 100
e 6 24
e 6 25
e 6 26
e 6 27
e 6 28
e 6 29
e 6 30
e 6 31
e 6 32
e 6 33
e 6 34
e 6 35
e 6 36
e 6 37
e 6 38
e 6 39
e 6 40
e 6 41
e 6 42
e 6 43
e 6 44
e 6 45
e 6 46
e 6 47
e 6 48
e 6 53
e 6 54
e 6 70
e 6 76
e 6 90
e 6 92
e 7 25
e 7 26
e 7 27
e 7 28
e 7 29
e 7 30
e 7 31
e 7 32
e 7 33
e 7 34
e 7 35
e 7 36
e 7 37
e 7 38
e 7 39
e 7 40
e 7 41
e 7 42
e 7 43
e 7 44
e 7 45
e 7 46
e 7 47
e 7 48
e 7 59
e 7 62
e 7 69
e 7 78
e 7 82
e 7 87
e 7 93
e 7 94
e 7 96
e 7 98
e 7 99
e 8 24
e 8 25
e 8 26
e 8 27
e 8 28
e 8 29
e 8 30
e 8 31
e 8 32
e 8 33
e 8 34
e 8 35
e 8 36
e 8 37
e 8 38
e 8 39
e 8 40
e 8 41
e 8 42
e 8 43
e 8 44
e 8 45
e 8 46
e 8 47
e 8 48
e 8 57
e 8 61
e 8 67
e 8 69
e 8 70
e 8 75
e 8 77
e 8 79
e 8 86
e 8 90
e 8 96
e 8 99
e 9 25
e 9 26
e 9 27
e 9 28
e 9 29
e 9 30
e 9 31
e 9 32
e 9 33
e 9 34
e 9 35
e 9 36
e 9 37
e 9 38
e 9 39
e 9 40
e 9 41
e 9 42
e 9 43
e 9 44
e 9 45
e 9 46
e 9 47
e 9 48
e 9 49
e 9 52
e 9 57
e 9 63
e 9 65
e 9 68
e 9 70
e 9 72
e 9 77
e 9 88
e 9 99
e 10 25
e 10 26
e 10 27
e 10 28
e 10 29
e 10 30
e 10 31
e 10 32
e 10 33
e 10 34
e 10 35
e 10 36
e 10 37
e 10 38
e 10 39
e 10 40
e 10 41
e 10 42
e 10 43
e 10 44
e 10 45
e 10 46
e 10 47
e 10 48
e 10 49
e 10 54
e 10 57
e 10 68
e 10 76
e 10 86
e 10 91
e 10 94
e 10 98
e 11 18
e 11 25
e 11 26
e 11 27
e 11 28
e 11 29
e 11 30
e 11 31
e 11 32
e 11 33
e 11 34
e 11 35
e 11 36
e 11 37
e 11 38
e 11 39
e 11 40
e 11 41
e 11 42
e 11 43
e 11 44
e 11 45
e 11 46
e 11 47
e 11 48
e 11 58
e 11 62
e 11 72
e 11 76
e 11 77
e 11 85
e 11 86
e 11 88
e 11 90
e 11 98
e 12 25
e 12 26
e 12 27
e 12 28
e 12 29
e 12 30
e 12 31
e 12 32
e 12 33
e 12 34
e 12 35
e 12 36
e 12 37
e 12 38
e 12 39
e 12 40
e 12 41
e 12 42
e 12 43
e 12 44
e 12 45
e 12 46
e 12 47
e 12 48
e 12 53
e 12 57
e 12 62
e 12 70
e 12 73
e 12 75
e 12 77
e 12 81
e 12 83
e 12 87
e 12 97
e 13 25
e 13 26
e 13 27
e 13 28
e 13 29
e 13 30
e 13 31
e 13 32
e 13 33
e 13 34
e 13 35
e 13 36
e 13 37
e 13 38
e 13 39
e 13 40
e 13 41
e 13 42
e 13 43
e 13 44
e 13 45
e 13 46
e 13 47
e 13 48
e 13 49
e 13 50
e 13 52
e 13 55
e 13 57
e 13 65
e 13 68
e 13 73
e 13 74
e 13 77
e 13 78
e 13 79
e 13 83
e 13 86
e 13 92
e 13 93
e 13 96
e 13 97
e 14 21
e 14 25
e 14 47
e 14 51
e 14 55
e 14 57
e 14 59
e 14 61
e 14 66
e 14 71
e 14 72
e 14 87
e 14 92
e 14 98
e 14 100
e 15 36
e 15 45
e 15 56
e 15 59
e 15 62
e 15 63
e 15 70
e 15 71
e 15 75
e 15 79
e 15 82
e 15 83
e 15 86
e 15 97
e 16 24
e 16 27
e 16 29
e 16 31
e 16 43
e 16 47
e 16 51
e 16 52
e 16 64
e 16 68
e 16 69
e 16 76
e 16 77
e 16 80
e 16 81
e 16 88
e 16 91
e 16 92
e 16 93
e 16 94
e 16 96
e 17 21
e 17 31
e 17 41
e 17 53
e 17 63
e 17 74
e 17 78
e 17 87
e 17 94
e 18 33
e 18 38
e 18 40
e 18 64
e 18 66
e 18 67
e 18 71
e 18 82
e 18 94
e 18 96
e 18 97
e 18 100
e 19 24
e 19 29
e 19 53
e 19 62
e 19 72
e 19 76
e 19 83
e 19 87
e 20 43
e 20 47
e 20 55
e 20 56
e 20 63
e 20 72
e 20 75
e 20 79
e 20 80
e 20 83
e 20 86
e 20 87
e 20 93
e 20 94
e 20 98
e 21 25
e 21 26
e 21 27
e 21 28
e 21 29
e 21 30
e 21 31
e 21 32
e 21 33
e 21 34
e 21 35
e 21 36
e 21 37
e 21 38
e 21 39
e 21 40
e 21 41
e 21 42
e 21 43
e 21 44
e 21 45
e 21 46
e 21 47
e 21 48
e 21 55
e 21 63
e 21 66
e 21 70
e 21 71
e 21 73
e 21 85
e 21 87
e 21 96
e 21 97
e 21 98
e 22 25
e 22 26
e 22 27
e 22 28
e 22 29
e 22 30
e 22 31
e 22 32
e 22 33
e 22 34
e 22 35
e 22 36
e 22 37
e 22 38
e 22 39
e 22 40
e 22 41
e 22 42
e 22 43
e 22 44
e 22 45
e 22 46
e 22 47
e 22 48
e 22 52
e 22 53
e 22 56
e 22 57
e 22 63
e 22 64
e 22 70
e 22 75
e 22 77
e 22 83
e 22 84
e 22 88
e 22 89
e 22 95
e 22 98
e 23 25
e 23 26
e 23 27
e 23 28
e 23 29
e 23 30
e 23 31
e 23 32
e 23 33
e 23 34
e 23 35
e 23 36
e 23 37
e 23 38
e 23 39
e 23 40
e 23 41
e 23 42
e 23 43
e 23 44
e 23 45
e 23 47
e 23 48
e 23 51
e 23 64
e 23 65
e 23 66
e 23 68
e 23 70
e 23 75
e 23 77
e 23 78
e 23 88
e 23 94
e 23 98
e 24 25
e 24 26
e 24 27
e 24 28
e 24 29
e 24 30
e 24 31
e 24 32
e 24 33
e 24 34
e 24 35
e 24 36
e 24 37
e 24 38
e 24 39
e 24 40
e 24 41
e 24 42
e 24 43
e 24 44
e 24 45
e 24 46
e 24 47
e 24 48
e 24 49
e 24 50
e 24 51
e 24 52
e 24 53
e 24 54
e 24 55
e 24 56
e 24 57
e 24 58
e 24 59
e 24 60
e 24 61
e 24 62
e 24 63
e 24 64
e 24 65
e 24 66
e 24 67
e 24 69
e 24 100
e 29 53
e 29 60
e 29 65
e 29 67
e 29 72
e 29 75
e 29 78
e 29 83
e 29 100
e 30 59
e 30 62
e 30 64
e 30 68
e 30 71
e 30 77
e 30 81
e 30 84
e 30 85
e 30 86
e 30 88
e 30 95
e 30 96
e 30 98
e 30 100
e 31 53
e 31 59
e 31 65
e 31 66
e 31 70
e 31 73
e 32 49
e 32 62
e 32 64
e 32 71
e 32 82
e 32 83
e 32 86
e 32 87
e 32 93
e 32 97
e 33 56
e 33 57
e 33 60
e 33 62
e 33 65
e 33 67
e 33 73
e 33 75
e 33 76
e 33 88
e 33 89
e 33 94
e 33 95
e 33 100
e 34 52
e 34 60
e 34 64
e 34 69
e 34 86
e 34 89
e 34 91
e 34 100
e 35 57
e 35 60
e 35 61
e 35 68
e 35 69
e 35 74
e 35 80
e 35 90
e 35 95
e 35 99
e 36 55
e 36 61
e 36 69
e 36 70
e 36 72
e 36 74
e 36 84
e 36 87
e 36 99
e 36 100
e 37 52
e 37 76
e 37 89
e 37 92
e 37 96
e 38 57
e 38 65
e 38 70
e 38 79
e 38 86
e 38 93
e 38 94
e 39 61
e 39 67
e 39 69
e 39 80
e 39 81
e 39 94
e 39 96
e 39 98
e 40 55
e 40 65
e 40 68
e 40 72
e 40 73
e 40 77
e 40 98
e 41 61
e 41 66
e 41 77
e 41 83
e 41 87
e 41 93
e 41 94
e 41 97
e 42 51
e 42 55
e 42 57
e 42 69
e 42 72
e 42 89
e 42 93
e 42 95
e 42 98
e 43 59
e 43 65
e 43 70
e 43 75
e 43 80
e 43 82
e 43 86
e 43 88
e 43 97
e 44 49
e 44 51
e 44 55
e 44 61
e 44 77
e 44 80
e 44 91
e 44 93
e 44 95
e 44 96
e 44 100
e 45 52
e 45 65
e 45 69
e 45 76
e 45 79
e 45 83
e 46 68
e 46 76
e 46 89
e 46 92
e 47 60
e 47 66
e 47 69
e 47 80
e 47 83
e 47 84
e 47 93
e 49 52
e 49 54
e 49 56
e 50 53
e 50 57
e 51 54
e 51 56
e 67 95
e 67 96
e 67 97
e 67 98
e 67 99
e 67 100
e 68 95
e 68 96
e 68 98
e 68 99
e 68 100
e 69 95
e 69 96
e 69 97
e 69 98
e 69 99
e 69 100
e 70 95
e 70 96
e 70 97
e 70 98
e 70 99
e 70 100
e 71 95
e 71 96
e 71 97
e 71 98
e 71 99
e 71 100
e 72 95
e 72 96
e 72 97
e 72 98
e 72 99
e 72 100
e 73 76
e 73 95
e 73 96
e 73 97
e 73 98
e 73 99
e 73 100
e 74 95
e 74 96
e 74 97
e 74 98
e 74 99
e 74 100
e 75 95
e 75 96
e 75 97
e 75 98
e 75 99
e 75 100
e 76 89
e 76 90
e 76 91
e 76 92
e 76 93
e 76 94
e 76 95
e 76 96
e 76 97
e 76 98
e 76 99
e 76 100
e 77 78
e 77 89
e 77 90
e 77 93
e 77 94
e 77 95
e 77 96
e 77 97
e 77 98
e 77 99
e 77 100
e 78 95
e 78 96
e 78 97
e 78 98
e 78 99
e 78 100
e 79 95
e 79 96
e 79 97
e 79 98
e 79 99
e 79 100
e 80 95
e 80 96
e 80 97
e 80 98
e 80 99
e 80 100
e 81 89
e 81 95
e 81 96
e 81 97
e 81 98
e 81 99
e 81 100
e 82 95
e 82 96
e 82 97
e 82 98
e 82 99
e 82 100
e 83 95
e 83 96
e 83 97
e 83 98
e 83 99
e 83 100
e 84 95
e 84 96
e 84 97
e 84 98
e 84 99
e 84 100
e 85 95
e 85 96
e 85 97
e 85 98
e 85 99
e 85 100
e 86 100
e 87 95
e 87 96
e 87 97
e 87 98
e 87 99
e 87 100
e 88 93
e 88 94
e 88 96
e 88 97
e 88 98
e 88 99
e 88 100
e 90 96
e 91 96
